Route #1: 34 52 27 29 45 4
Route #2: 30 48 47 36 60 20 37
Route #3: 5 15 57 13 54 19 8 46
Route #4: 7 53 59 14 35
Route #5: 11 38 10 58 12
Route #6: 40 9 25 50 32
Route #7: 39 31 55 18 24 56 23
Route #8: 63 1 43 41 42 64 22
Route #9: 21 61 28 62 2
Route #10: 6 33 16 49 44 3 51 17
Route #11: 26
Cost 853